width,height
10,10
6,1
10,2
8,4
9,4
5,5
5,1
4,4
10,3
5,1
5,2
10,3
1,3
10,5
4,4
5,3
3,5
8,4
2,4
4,2
1,4
1,4
9,5
9,1
5,5
1,5
10,2
9,1
1,4
1,2
6,5
7,2
5,1
6,1
8,2
1,2
2,3
7,4
5,5
2,3
9,3
4,4
7,2
7,3
9,3
9,4
6,4
8,1
10,2
4,5
9,5
9,3
8,1
1,2
5,1
7,4
5,4
10,5
2,4
8,2
7,5
8,2
4,1
1,1
1,5
7,5
3,5
2,5
4,1
1,3
7,4
10,2
6,4
10,2
3,3
3,2
1,1
9,2
8,3
10,2
4,2
2,3
7,2
1,4
8,1
3,1
4,4
10,5
5,3
5,4
3,4
6,3
5,3
2,3
3,3
5,2
7,2
3,1
8,4
3,3
1,4
